/* Objective function */
min: 622 xa1 + 614 xa2 + 630 xa3 + 641 xb1 + 645 xb2 + 649 xb3;

/* Constraints */
xa1 + xa2 + xa3 + xa4 = 100;
xb1 + xb2 + xb3 + xb4 = 120;
xa1 + xb1 = 80;
xa2 + xb2 = 60;
xa3 + xb3 = 70;
xa4 + xb4 = 10;
